db/data/19001268572102524648234123742897719989.z3.out
-------------------
2500.794296506
